40 40
20
3 3   0 25
4 3   0 22
5 3   25 22
6 3   6 30
7 3   12 30
3 8   3 25
9 3   4 22
10 3   30 22
12 3   13 22
16 3   19 30
40 3   0 37
4 4   14 33
14 4   0 33
22 4   18 33
3 5   0 28
4 5   6 25
5 8   35 25
12 5   10 25
13 5   22 25
40 22  0 0 
